networks/zoo_56_152/zoo_56_152-lower.txt
Number of groups: 23
Flow 3: {1 2 0} {2 4 0} {4 32 0} 
Flow 9: {1 7 0} {7 3 0} {3 16 0} {16 20 0} {20 48 0} 
Flow 16: {21 15 0} {15 25 0} {25 9 0} {9 10 0} {10 14 0} {14 13 0} {13 12 0} {12 11 0} {11 39 0} 
Flow 24: {4 26 0} {26 27 0} {27 28 0} {28 56 0} 
Flow 25: {3 7 0} {7 1 0} {1 29 0} 
Flow 28: {15 6 0} {6 34 0} 
Flow 55: {25 23 0} {23 51 0} 
Flow 57: {20 19 0} {19 28 0} 
Flow 58: {11 12 0} {12 13 0} {13 14 0} {14 10 0} {10 9 0} {9 25 0} 
Flow 71: {15 21 0} {21 16 0} {16 44 0} 
Flow 80: {16 3 0} {3 31 0} 
Flow 85: {12 40 0} 
Flow 87: {14 42 0} 
Flow 93: {26 54 0} 
Flow 95: {19 20 0} {20 16 0} {16 21 0} {21 49 0} 
Flow 103: {13 41 0} 
Flow 109: {23 25 0} {25 53 0} 
Flow 111: {24 17 0} {17 23 0} {23 21 0} {21 3 0} {3 4 0} {4 2 0} {2 30 0} 
Flow 114: {24 9 0} {9 37 0} 
Flow 115: {10 38 0} 
Flow 119: {24 25 0} {25 15 0} {15 43 0} 
Flow 120: {17 8 0} {8 22 0} {22 16 0} 
Flow 151: {26 4 0} {4 3 0} {3 21 0} {21 23 0} 
Time taken running everything: 0 seconds
