networks/zoo_56_152/zoo_56_152-lower.sol
<?xml version = "1.0" encoding="UTF-8" standalone="yes"?>
<CPLEXSolution version="1.2">
 <header
   problemName="networks/zoo_56_152/zoo_56_152-lower.lp"
   solutionName="incumbent"
   solutionIndex="-1"
   objectiveValue="19"
   solutionTypeValue="3"
   solutionTypeString="primal"
   solutionStatusValue="101"
   solutionStatusString="integer optimal solution"
   solutionMethodString="mip"
   primalFeasible="1"
   dualFeasible="1"
   MIPNodes="0"
   MIPIterations="0"
   writeLevel="3"/>
 <quality
   epInt="1.0000000000000001e-05"
   epRHS="9.9999999999999995e-07"
   maxIntInfeas="0"
   maxPrimalInfeas="0"
   maxX="1"
   maxSlack="1"/>
 <variables>
  <variable name="Y(1,2)" index="1" value="1"/>
  <variable name="Y(2,3)" index="47" value="1"/>
  <variable name="Y(3,4)" index="93" value="1"/>
  <variable name="Y(4,9)" index="142" value="1"/>
  <variable name="Y(5,11)" index="189" value="1"/>
  <variable name="Y(6,13)" index="236" value="1"/>
  <variable name="Y(7,14)" index="282" value="1"/>
  <variable name="Y(8,15)" index="328" value="1"/>
  <variable name="Y(9,20)" index="377" value="1"/>
  <variable name="Y(10,21)" index="423" value="1"/>
  <variable name="Y(11,23)" index="470" value="1"/>
  <variable name="Y(12,25)" index="517" value="1"/>
  <variable name="Y(24,28)" index="1060" value="1"/>
  <variable name="Y(25,1)" index="1080" value="1"/>
  <variable name="Y(28,6)" index="1219" value="1"/>
  <variable name="Y(30,10)" index="1313" value="1"/>
  <variable name="Y(32,12)" index="1405" value="1"/>
  <variable name="Y(36,16)" index="1589" value="1"/>
  <variable name="Y(41,26)" index="1823" value="1"/>
  <variable name="X(1,2,1)" index="6840" value="1"/>
  <variable name="X(1,7,2)" index="6993" value="1"/>
  <variable name="X(1,29,25)" index="7168" value="1"/>
  <variable name="X(2,4,3)" index="7298" value="1"/>
  <variable name="X(2,30,1)" index="7448" value="1"/>
  <variable name="X(3,4,26)" index="7625" value="1"/>
  <variable name="X(3,7,25)" index="7776" value="1"/>
  <variable name="X(3,16,9)" index="7912" value="1"/>
  <variable name="X(3,21,4)" index="8059" value="1"/>
  <variable name="X(3,31,2)" index="8209" value="1"/>
  <variable name="X(4,2,26)" index="8385" value="1"/>
  <variable name="X(4,3,13)" index="8524" value="1"/>
  <variable name="X(4,26,24)" index="8687" value="1"/>
  <variable name="X(4,32,3)" index="8818" value="1"/>
  <variable name="X(6,34,28)" index="8995" value="1"/>
  <variable name="X(7,1,25)" index="9144" value="1"/>
  <variable name="X(7,3,2)" index="9273" value="1"/>
  <variable name="X(8,22,120)" index="9543" value="1"/>
  <variable name="X(9,10,5)" index="9580" value="1"/>
  <variable name="X(9,25,43)" index="9770" value="1"/>
  <variable name="X(9,37,4)" index="9883" value="1"/>
  <variable name="X(10,9,58)" index="10089" value="1"/>
  <variable name="X(10,14,5)" index="10188" value="1"/>
  <variable name="X(10,38,30)" index="10365" value="1"/>
  <variable name="X(11,12,58)" index="10545" value="1"/>
  <variable name="X(11,39,5)" index="10644" value="1"/>
  <variable name="X(12,11,5)" index="10796" value="1"/>
  <variable name="X(12,13,58)" index="11001" value="1"/>
  <variable name="X(12,40,32)" index="11127" value="1"/>
  <variable name="X(13,12,5)" index="11252" value="1"/>
  <variable name="X(13,14,58)" index="11457" value="1"/>
  <variable name="X(13,41,6)" index="11557" value="1"/>
  <variable name="X(14,10,58)" index="11761" value="1"/>
  <variable name="X(14,13,5)" index="11860" value="1"/>
  <variable name="X(14,42,7)" index="12014" value="1"/>
  <variable name="X(15,6,28)" index="12187" value="1"/>
  <variable name="X(15,21,43)" index="12354" value="1"/>
  <variable name="X(15,25,4)" index="12467" value="1"/>
  <variable name="X(15,43,8)" index="12623" value="1"/>
  <variable name="X(16,3,78)" index="12845" value="1"/>
  <variable name="X(16,20,9)" index="12928" value="1"/>
  <variable name="X(16,21,82)" index="13153" value="1"/>
  <variable name="X(16,44,36)" index="13259" value="1"/>
  <variable name="X(17,8,120)" index="13495" value="1"/>
  <variable name="X(17,23,110)" index="13637" value="1"/>
  <variable name="X(19,20,95)" index="13774" value="1"/>
  <variable name="X(19,28,57)" index="13888" value="1"/>
  <variable name="X(20,16,95)" index="14078" value="1"/>
  <variable name="X(20,19,57)" index="14192" value="1"/>
  <variable name="X(20,48,9)" index="14296" value="1"/>
  <variable name="X(21,3,43)" index="14482" value="1"/>
  <variable name="X(21,15,4)" index="14595" value="1"/>
  <variable name="X(21,16,52)" index="14795" value="1"/>
  <variable name="X(21,23,11)" index="14906" value="1"/>
  <variable name="X(21,49,10)" index="15057" value="1"/>
  <variable name="X(22,16,120)" index="15319" value="1"/>
  <variable name="X(23,21,106)" index="15457" value="1"/>
  <variable name="X(23,25,109)" index="15612" value="1"/>
  <variable name="X(23,51,11)" index="15666" value="1"/>
  <variable name="X(24,9,114)" index="15921" value="1"/>
  <variable name="X(24,17,110)" index="16069" value="1"/>
  <variable name="X(24,25,119)" index="16230" value="1"/>
  <variable name="X(25,9,4)" index="16267" value="1"/>
  <variable name="X(25,15,43)" index="16458" value="1"/>
  <variable name="X(25,23,55)" index="16622" value="1"/>
  <variable name="X(25,53,12)" index="16731" value="1"/>
  <variable name="X(26,4,143)" index="17014" value="1"/>
  <variable name="X(26,27,24)" index="17047" value="1"/>
  <variable name="X(26,54,41)" index="17216" value="1"/>
  <variable name="X(27,28,24)" index="17351" value="1"/>
  <variable name="X(28,56,24)" index="17503" value="1"/>
 </variables>
</CPLEXSolution>
